language Essence 1.3

letting class be function(1 --> 1, 2 --> 2, 3 --> 1, 4 --> 1, 5 --> 3)
letting deck_length be 57
letting deck_width be 7
letting length be function(1 --> 9, 2 --> 9, 3 --> 10, 4 --> 5, 5 --> 6)
letting n_classes be 3
letting n_containers be 5
letting separation be function({1, 3} --> 22, {2, 3} --> 4)
letting width be function(1 --> 4, 2 --> 5, 3 --> 7, 4 --> 6, 5 --> 7)
